 &CONTROL
  calculation = 'scf' ,
  outdir = './tmp' ,
  prefix = 'Fe_bcc',
  pseudo_dir = './' ,
  tprnfor = .True.,
  tstress = .True.,
 /
 &SYSTEM
  ibrav = 2,
  celldm(1) = {alat},
  nat = 1,
  ntyp = 1,
  ecutwfc = 50,
  ecutrho = 250,
  nspin = 2,
  starting_magnetization(1) = 0.7,
  occupations = 'smearing',
  smearing = 'cold',
  degauss = 0.025,
 /
 &ELECTRONS
  diagonalization = 'david',
  conv_thr = 1.D-8,
  mixing_beta = 0.7,
 /
 &IONS
 /
 &CELL
 /
ATOMIC_SPECIES
   Cu   63.546  Cu.rel-pbe-dn-kjpaw_psl.0.2.UPF
ATOMIC_POSITIONS crystal 
   Cu      0.000000000    0.000000000    0.000000000    
K_POINTS automatic 
  {k} {k} {k}   0 0 0 

