 &CONTROL
  calculation = 'scf' ,
  outdir = './tmp' ,
  prefix = 'Al_111_bulk',
  pseudo_dir = './' ,
  tprnfor = .True.,
  tstress = .True.,
 /
 &SYSTEM
  ibrav = 4,
  celldm(1) = {alat},
  celldm(3) = 2.449489743,
  nat = 3,
  ntyp = 1,
  ecutwfc = 30,
  ecutrho = 150,
  occupations = 'smearing',
  smearing = 'cold',
  degauss = 0.025,
 /
 &ELECTRONS
  diagonalization = 'david',
  conv_thr = 1.D-8,
  mixing_beta = 0.3,
  mixing_mode = 'local-TF'
 /
 &IONS
  ion_dynamics = 'bfgs',
 /
 &CELL
 /
ATOMIC_SPECIES
   Al   26.98  Al.pbe-n-van.UPF
ATOMIC_POSITIONS crystal 
   Al   0.0   0.0    0.0
   Al 0.333333333333 0.333333333333 0.666666666667 
   Al 0.666666666667 0.666666666667 0.333333333333
K_POINTS Automatic
  {k1} {k1} {k3} 1 1 1
