 &CONTROL
  calculation = 'relax' ,
  outdir = './tmp' ,
  prefix = 'Al_100_{nslab}_{nvac}',
  pseudo_dir = './' ,
  tprnfor = .True.,
  tstress = .True.,
 /
 &SYSTEM
  ibrav = 6,
  celldm(1) = {alat},
  celldm(3) = {calat},
  nat = {nat},
  ntyp = 1,
  ecutwfc = 50,
  ecutrho = 250,
  occupations = 'smearing',
  smearing = 'cold',
  degauss = 0.025,
 /
 &ELECTRONS
  diagonalization = 'david',
  conv_thr = 1.D-6,
  mixing_beta = 0.7,
 /
 &IONS
  ion_dynamics = 'bfgs',
 /
ATOMIC_SPECIES
  Al   26.98  Al.pbe-n-kjpaw_psl.0.1.UPF
ATOMIC_POSITIONS crystal 
{atompos}
K_POINTS automatic 
  8 8 1   0 0 0
