 &CONTROL
  calculation = 'relax' ,
  outdir = './tmp' ,
  prefix = 'Cu_100',
  pseudo_dir = './' ,
  tprnfor = .True.,
  tstress = .True.,
 /
 &SYSTEM
  ibrav = 6,
  celldm(1) = {alat},
  celldm(3) = 4,
  nat = 8,
  ntyp = 1,
  ecutwfc = 50,
  ecutrho = 250,
  occupations = 'smearing',
  smearing = 'cold',
  degauss = 0.025,
 /
 &ELECTRONS
  diagonalization = 'david',
  conv_thr = 1.D-8,
  mixing_beta = 0.7,
 /
 &IONS
  ion_dynamics = 'bfgs',
 /
ATOMIC_SPECIES
   Cu   63.546  Cu.pbe-kjpaw.UPF
ATOMIC_POSITIONS crystal 
   Cu      0.0    0.0   0.0
   Cu      0.5    0.5   0.0
   Cu      0.0    0.5   0.125
   Cu      0.5    0.0   0.125
   Cu      0.0    0.0   0.25
   Cu      0.5    0.5   0.25
   Cu      0.0    0.5   0.375
   Cu      0.5    0.0   0.375
K_POINTS automatic 
  8 8 1   0 0 0
