 &CONTROL
                 calculation = 'vc-relax' ,
                      outdir = '/Users/shyuepingong/scratch' ,
                      wfcdir = '/Users/shyuepingong/scratch' ,
                  pseudo_dir = '/Users/shyuepingong/scratch' ,
                       nstep = 50 ,
 /
 &SYSTEM
                       ibrav = 3,
                   celldm(1) = 5.6,
                         nat = 1,
                        ntyp = 1,
                     ecutwfc = 50 ,
 /
 &ELECTRONS
 /
 &IONS
 /
 &CELL
 /
ATOMIC_SPECIES
   Fe   56.00000  Fe.pbe-spn-kjpaw_psl.0.2.1.UPF 
ATOMIC_POSITIONS crystal 
   Fe      0.000000000    0.000000000    0.000000000    
K_POINTS automatic 
  6 6 6   0 0 0 

